
  32    1
  10

   0   0  11 2 3 4 5 6 8 9 10 15 18 22 
   7   1   4 17 13 11 7 
   5   2   6 30 28 21 16 14 12 
   8   1   6 29 28 26 25 19 11 
   2   1   6 29 28 27 20 19 14 
   5   1   7 30 28 27 26 25 24 23 
   4   3   3 31 28 16 
  10   2   3 31 24 14 
   3   2   3 24 20 14 
   7   2   2 19 14 
   4   3   4 30 27 24 23 
   5   2   4 27 25 24 23 
   8   3   3 29 24 21 
   4   2   3 26 25 23 
   7   2   3 27 24 23 
   2   4   2 23 19 
   8   2   2 26 25 
   7   1   1 20 
   1   1   1 24 
   1   1   1 23 
   8   2   1 23 
  10   4   1 29 
   3   1   1 32
   9   1   1 32
   9   3   1 32
   5   1   1 32
   8   4   1 32
  10   4   1 32
   4   2   1 32
   5   1   1 32
   3   1   1 32
   0   0   0 
